100
2 1 1 99 100
2 0 1 2 2
2 1 2 3 3
2 2 3 4 4
2 3 4 5 5
2 4 5 6 6
2 5 6 7 7
2 6 7 8 8
2 7 8 9 9
2 8 9 10 10
2 9 10 11 11
2 10 11 12 12
2 11 12 13 13
2 12 13 14 14
2 13 14 15 15
2 14 15 16 16
2 15 16 17 17
2 16 17 18 18
2 17 18 19 19
2 18 19 20 20
2 19 20 21 21
2 20 21 22 22
2 21 22 23 23
2 22 23 24 24
2 23 24 25 25
2 24 25 26 26
2 25 26 27 27
2 26 27 28 28
2 27 28 29 29
2 28 29 30 30
2 29 30 31 31
2 30 31 32 32
2 31 32 33 33
2 32 33 34 34
2 33 34 35 35
2 34 35 36 36
2 35 36 37 37
2 36 37 38 38
2 37 38 39 39
2 38 39 40 40
2 39 40 41 41
2 40 41 42 42
2 41 42 43 43
2 42 43 44 44
2 43 44 45 45
2 44 45 46 46
2 45 46 47 47
2 46 47 48 48
2 47 48 49 49
2 48 49 50 50
2 49 50 51 51
2 50 51 52 52
2 51 52 53 53
2 52 53 54 54
2 53 54 55 55
2 54 55 56 56
2 55 56 57 57
2 56 57 58 58
2 57 58 59 59
2 58 59 60 60
2 59 60 61 61
2 60 61 62 62
2 61 62 63 63
2 62 63 64 64
2 63 64 65 65
2 64 65 66 66
2 65 66 67 67
2 66 67 68 68
2 67 68 69 69
2 68 69 70 70
2 69 70 71 71
2 70 71 72 72
2 71 72 73 73
2 72 73 74 74
2 73 74 75 75
2 74 75 76 76
2 75 76 77 77
2 76 77 78 78
2 77 78 79 79
2 78 79 80 80
2 79 80 81 81
2 80 81 82 82
2 81 82 83 83
2 82 83 84 84
2 83 84 85 85
2 84 85 86 86
2 85 86 87 87
2 86 87 88 88
2 87 88 89 89
2 88 89 90 90
2 89 90 91 91
2 90 91 92 92
2 91 92 93 93
2 92 93 94 94
2 93 94 95 95
2 94 95 96 96
2 95 96 97 97
2 96 97 98 98
2 97 98 99 99
2 98 99 0 100